c 1303 z 1288
332	124
664	248
581	217
249	93
372	368
415	155
651	644
372	368
279	276
465	460
166	62
830	310
415	155
558	552
744	736
558	552
166	62
279	276
664	248
279	276
830	310
664	248
837	828
664	248
558	552
279	276
93	92
415	155
930	920
279	276
664	248
166	62
837	828
581	217
465	460
837	828
744	736
186	184
279	276
744	736
651	644
465	460
837	828
332	124
664	248
581	217
837	828
747	279
930	920
186	184